1167.60 0
0 110 53 55 58 61 65 62 64 66 63 60 56 80 79 68 100 99 101 0
0 81 2 1 3 4 10 11 15 14 13 9 7 6 5 83 113 117 88 0
0 107 67 69 70 71 74 75 72 78 77 76 73 103 104 106 105 0
0 102 116 98 52 54 57 59 40 42 39 38 12 8 84 112 0
0 120 119 82 111 86 85 89 92 91 90 94 93 96 95 87 0
0 97 115 43 45 48 51 50 49 46 47 44 41 37 109 114 18 0
0 21 20 23 26 28 32 35 29 36 34 31 30 33 27 24 22 25 19 16 17 108 118 0
